Minimize
  - 27 y_0 - 24 y_1 - 7 y_2 - 10 y_3 - 12 y_4 - 13 y_5 - 9 y_6 - 15 y_7
   - 25 y_8 - 9 y_9 - 19 y_10 - 9 y_11 - 29 y_12 - 27 y_13 - 10 y_14
   - 19 y_15 - 30 y_16 - 9 y_17 - 31 y_18 - 6 y_20 - 15 y_21 - 11 y_22
   - 25 y_23 - 37 y_24 - 22 y_25 - 27 y_26 - 17 y_27 - 21 y_28 - 16 y_29
   - 18 y_30 - 20 y_31 - 8 y_32 - 12 y_33 - 26 y_34 - 21 y_35 - 16 y_36
   - 9 y_37 - 16 y_38 - 26 y_39 - 17 y_40 - 27 y_41 - 31 y_42 - 16 y_43
   - 25 y_44 - 20 y_45 - 11 y_46 - 18 y_47 - 24 y_48 - 13 y_49 - 26 y_50
   - 12 y_51 - 28 y_52 - 20 y_53 - 11 y_54 - 30 y_55 - 11 y_56 - 13 y_57
   - 22 y_58 - 16 y_59 - 29 y_60 - 27 y_61 - 26 y_62 - 16 y_63 - 18 y_64
   - 13 y_65 - 14 y_66 - 18 y_67 - 17 y_68 - 20 y_69 - 19 y_70 - 26 y_71
   - 29 y_72 - 29 y_73 - 10 y_74 - 27 y_75 - 6 y_76 - 11 y_77 - 2 y_78
   - 28 y_79 - 18 y_80 - 22 y_81 - 16 y_82 - 21 y_83 - 10 y_84 - 33 y_85
   - 17 y_86 - 36 y_87 - 5 y_88 - 30 y_89 - 25 y_90 - 22 y_91 - 19 y_92
   - 20 y_93 - 18 y_94 - 24 y_95 - 19 y_96 - 8 y_97 - 23 y_98 - 26 y_99
   + 1891 Constant
Subject To
 c_0: y_4 = 1
 c_1_0: y_0 + y_62 + y_72 >= 1
 c_1_1: y_1 + y_23 + y_25 + y_34 + y_48 + y_69 + y_91 >= 1
 c_1_2: y_2 + y_3 + y_20 + y_22 + y_46 + y_54 + y_76 + y_88 + y_97 >= 1
 c_1_3: y_2 + y_3 + y_46 >= 1
 c_1_4: y_4 + y_11 + y_32 + y_57 + y_59 + y_77 >= 1
 c_1_5: y_5 + y_17 + y_27 >= 1
 c_1_6: y_6 + y_9 + y_33 + y_49 >= 1
 c_1_7: y_7 + y_15 + y_21 + y_43 + y_56 >= 1
 c_1_8: y_8 + y_45 + y_61 + y_81 >= 1
 c_1_9: y_6 + y_9 + y_33 + y_49 >= 1
 c_1_10: y_10 + y_31 + y_70 + y_82 >= 1
 c_1_11: y_4 + y_11 + y_32 + y_57 + y_77 >= 1
 c_1_12: y_12 + y_16 + y_62 + y_72 + y_75 >= 1
 c_1_13: y_13 + y_44 >= 1
 c_1_14: y_14 + y_37 + y_97 >= 1
 c_1_15: y_7 + y_15 + y_43 + y_81 >= 1
 c_1_16: y_12 + y_16 + y_62 + y_72 >= 1
 c_1_17: y_5 + y_17 >= 1
 c_1_18: y_18 + y_61 >= 1
 c_1_19: y_19 + y_78 + y_88 >= 1
 c_1_20: y_2 + y_20 + y_22 + y_37 + y_51 + y_54 + y_76 + y_88 + y_97 >= 1
 c_1_21: y_7 + y_21 + y_33 + y_38 + y_45 + y_56 >= 1
 c_1_22: y_2 + y_20 + y_22 + y_46 + y_51 + y_54 >= 1
 c_1_23: y_1 + y_23 + y_48 + y_99 >= 1
 c_1_24: y_24 + y_87 >= 1
 c_1_25: y_1 + y_25 + y_69 + y_83 + y_91 >= 1
 c_1_26: y_26 + y_52 >= 1
 c_1_27: y_5 + y_27 + y_86 >= 1
 c_1_28: y_28 + y_80 >= 1
 c_1_29: y_29 + y_49 + y_67 + y_69 + y_94 >= 1
 c_1_30: y_30 + y_59 + y_64 + y_80 >= 1
 c_1_31: y_10 + y_31 + y_70 + y_82 >= 1
 c_1_32: y_4 + y_11 + y_32 + y_77 >= 1
 c_1_33: y_6 + y_9 + y_21 + y_33 + y_38 + y_40 + y_49 + y_56 >= 1
 c_1_34: y_1 + y_34 + y_48 + y_91 >= 1
 c_1_35: y_35 + y_68 + y_93 >= 1
 c_1_36: y_36 + y_51 >= 1
 c_1_37: y_14 + y_20 + y_37 + y_51 + y_76 + y_97 >= 1
 c_1_38: y_21 + y_33 + y_38 + y_40 + y_49 + y_67 + y_94 >= 1
 c_1_39: y_39 + y_41 + y_98 >= 1
 c_1_40: y_33 + y_38 + y_40 + y_49 + y_53 + y_67 + y_94 >= 1
 c_1_41: y_39 + y_41 + y_98 >= 1
 c_1_42: y_42 + y_60 + y_73 >= 1
 c_1_43: y_7 + y_15 + y_43 + y_65 + y_82 >= 1
 c_1_44: y_13 + y_44 >= 1
 c_1_45: y_8 + y_21 + y_45 + y_81 >= 1
 c_1_46: y_2 + y_3 + y_22 + y_46 + y_54 + y_63 >= 1
 c_1_47: y_47 >= 1
 c_1_48: y_1 + y_23 + y_34 + y_48 + y_69 + y_91 >= 1
 c_1_49: y_6 + y_9 + y_29 + y_33 + y_38 + y_40 + y_49 >= 1
 c_1_50: y_50 >= 1
 c_1_51: y_20 + y_22 + y_36 + y_37 + y_51 + y_54 + y_97 >= 1
 c_1_52: y_26 + y_52 >= 1
 c_1_53: y_40 + y_53 + y_67 + y_94 + y_99 >= 1
 c_1_54: y_2 + y_20 + y_22 + y_46 + y_51 + y_54 >= 1
 c_1_55: y_55 >= 1
 c_1_56: y_7 + y_21 + y_33 + y_56 + y_74 >= 1
 c_1_57: y_4 + y_11 + y_57 + y_77 >= 1
 c_1_58: y_58 >= 1
 c_1_59: y_4 + y_30 + y_59 + y_64 + y_80 >= 1
 c_1_60: y_42 + y_60 + y_73 + y_89 >= 1
 c_1_61: y_8 + y_18 + y_61 + y_81 + y_89 >= 1
 c_1_62: y_0 + y_12 + y_16 + y_62 + y_72 + y_83 >= 1
 c_1_63: y_46 + y_63 + y_68 >= 1
 c_1_64: y_30 + y_59 + y_64 >= 1
 c_1_65: y_43 + y_65 + y_74 + y_82 >= 1
 c_1_66: y_66 + y_84 >= 1
 c_1_67: y_29 + y_38 + y_40 + y_53 + y_67 + y_94 >= 1
 c_1_68: y_35 + y_63 + y_68 + y_93 >= 1
 c_1_69: y_1 + y_25 + y_29 + y_48 + y_69 + y_91 >= 1
 c_1_70: y_10 + y_31 + y_70 + y_96 >= 1
 c_1_71: y_71 + y_75 >= 1
 c_1_72: y_0 + y_12 + y_16 + y_62 + y_72 >= 1
 c_1_73: y_42 + y_60 + y_73 >= 1
 c_1_74: y_56 + y_65 + y_74 >= 1
 c_1_75: y_12 + y_71 + y_75 >= 1
 c_1_76: y_2 + y_20 + y_37 + y_76 + y_88 + y_97 >= 1
 c_1_77: y_4 + y_11 + y_32 + y_57 + y_77 >= 1
 c_1_78: y_19 + y_78 + y_88 >= 1
 c_1_79: y_79 + y_90 >= 1
 c_1_80: y_28 + y_30 + y_59 + y_80 >= 1
 c_1_81: y_8 + y_15 + y_45 + y_61 + y_81 >= 1
 c_1_82: y_10 + y_31 + y_43 + y_65 + y_82 >= 1
 c_1_83: y_25 + y_62 + y_83 >= 1
 c_1_84: y_66 + y_84 >= 1
 c_1_85: y_85 + y_89 >= 1
 c_1_86: y_27 + y_86 >= 1
 c_1_87: y_24 + y_87 >= 1
 c_1_88: y_2 + y_19 + y_20 + y_76 + y_78 + y_88 >= 1
 c_1_89: y_60 + y_61 + y_85 + y_89 >= 1
 c_1_90: y_79 + y_90 >= 1
 c_1_91: y_1 + y_25 + y_34 + y_48 + y_69 + y_91 >= 1
 c_1_92: y_92 + y_96 >= 1
 c_1_93: y_35 + y_68 + y_93 >= 1
 c_1_94: y_29 + y_38 + y_40 + y_53 + y_67 + y_94 >= 1
 c_1_95: y_95 >= 1
 c_1_96: y_70 + y_92 + y_96 >= 1
 c_1_97: y_2 + y_14 + y_20 + y_37 + y_51 + y_76 + y_97 >= 1
 c_1_98: y_39 + y_41 + y_98 >= 1
 c_1_99: y_23 + y_53 + y_99 >= 1
Bounds
 Constant = 1
Binaries
 y_0 y_1 y_2 y_3 y_4 y_5 y_6 y_7 y_8 y_9 y_10 y_11 y_12 y_13 y_14 y_15 y_16
 y_17 y_18 y_19 y_20 y_21 y_22 y_23 y_24 y_25 y_26 y_27 y_28 y_29 y_30 y_31
 y_32 y_33 y_34 y_35 y_36 y_37 y_38 y_39 y_40 y_41 y_42 y_43 y_44 y_45 y_46
 y_47 y_48 y_49 y_50 y_51 y_52 y_53 y_54 y_55 y_56 y_57 y_58 y_59 y_60 y_61
 y_62 y_63 y_64 y_65 y_66 y_67 y_68 y_69 y_70 y_71 y_72 y_73 y_74 y_75 y_76
 y_77 y_78 y_79 y_80 y_81 y_82 y_83 y_84 y_85 y_86 y_87 y_88 y_89 y_90 y_91
 y_92 y_93 y_94 y_95 y_96 y_97 y_98 y_99
End
